outs/cai/Trivium_no_init_out350_known_last142_1.cnf_cai.out
c --- [ banner ] -------------------------------------------------------------
c 
c CaDiCaL Radically Simplified CDCL SAT Solver
c Copyright (c) 2016-2019 Armin Biere, JKU Linz
c 
c Version 1.2.1 92d72896c49b30ad2d50c8e1061ca0681cd23e60
c g++ (GCC) 8.3.1 20190223 (Red Hat 8.3.1-2) -Wall -Wextra -O3 -DNDEBUG
c Mon Dec 9 12:07:29 EST 2019 Linux istanbul 5.0.16-100.fc28.x86_64 x86_64
c 
c --- [ limit ] --------------------------------------------------------------
c 
c setting time limit to 129600 seconds real time
c 
c --- [ parsing input ] ------------------------------------------------------
c 
c reading DIMACS file from './cnfs/Trivium_no_init_out350_known_last142_1.cnf'
c opening file to read './cnfs/Trivium_no_init_out350_known_last142_1.cnf'
c found 'p cnf 2187 27868' header
c parsed 27868 clauses in 0.02 seconds process time
c closing file './cnfs/Trivium_no_init_out350_known_last142_1.cnf'
c after reading 695726 bytes 0.7 MB
c 
c --- [ options ] ------------------------------------------------------------
c 
c   --profile=4                    (different from default '2')
c 
c --- [ solving ] ------------------------------------------------------------
c 
c time measured in process time since initialization
c 
c  seconds  reductions  redundant  irredundant
c         MB    restarts       trail     variables
c          level   conflicts       glue       remaining
c 
c *  0.02  6  0 0   0    0    0  0% 0 21358 1617 74%
c {  0.03  6  0 0   0    0    0  0% 0 21358 1617 74%
c -  0.05  7 238 1   0  301  289 50% 44 21266 1617 74%
c -  0.10  8 181 2  24  902  640 52% 36 21266 1617 74%
c }  0.11  8 176 2  25 1000  723 52% 35 21266 1617 74%
c [  0.11  8  0 2  25 1000  723  0% 0 21266 1617 74%
c O  0.11  8 167 2  25 1003  726 52% 18 21266 1617 74%
c -  0.17  8 153 3  25 1803 1068 47% 31 21266 1617 74%
c ]  0.25  8 96 3  26 3000 2213 15% 31 21266 1617 74%
c {  0.25  8 176 3  26 3000 2213 70% 35 21266 1617 74%
c -  0.26  8 175 4  26 3005 1498 69% 35 21266 1617 74%
c F  0.26  8 175 4  26 3006 1499 69% 35 21266 1617 74%
c -  0.34  8 88 5  26 4506 1909 32% 23 21266 1617 74%
c 3  0.37  8 81 5  26 5002 2380 29% 22 20114 1136 52%
c #  0.42  8 63 5  26 6008 3308 22% 19 20114 1136 52%
c -  0.44  8 59 6  26 6308 2220 21% 18 20114 1136 52%
c }  0.47  8 54 6  26 7000 2831 20% 17 20114 1136 52%
c [  0.47  8 96 6  26 7000 2831 15% 31 20114 1136 52%
c s  0.51  8 81 6  27 7449 3191 14% 27 20062 1136 52%
c v  0.67  9 81 6  27 7449 3191 14% 27 20032 1136 52%
c 
c  seconds  reductions  redundant   irredundant
c         MB    restarts       trail      variables
c          level   conflicts       glue        remaining
c 
c w  0.72  9 81 6  27 7449 3190 14% 27 20032 1136 52%
c e  0.74  9 81 6  27 7449 2996 14% 27 20032 1135 52%
c s  0.75  9 81 6  27 7449 2992 14% 27 20032 1135 52%
c -  0.81  9 59 7  27 8408 2462 17% 22 20032 1135 52%
c I  0.91  9 42 7  28 10010 3863 18% 19 20032 1135 52%
c -  0.95  9 38 8  29 10808 3249 18% 18 20032 1135 52%
c -  1.10  8 29 9  31 13508 3895 19% 15 20032 1135 52%
c ]  1.19  8 27 9  31 15001 5256 20% 15 20032 1135 52%
c {  1.19  8 54 9  31 15001 5256 28% 17 20032 1135 52%
c B  1.19  8 54 9  31 15012 5266 28% 17 20032 1135 52%
c -  1.27  8 44 10  31 16510 4386 24% 16 20032 1135 52%
c -  1.48  8 33 11  31 19811 4690 22% 16 20032 1135 52%
c W  1.58  8 31 11  31 21013 5672 21% 15 20032 1135 52%
c -  1.73  8 28 12  40 23413 5158 21% 15 20032 1135 52%
c s  1.77  8 28 12  40 24016 5523 21% 15 20026 1135 52%
c v  1.93  8 28 12  40 24016 5523 21% 15 20024 1135 52%
c w  1.99  8 28 12  40 24016 5503 21% 15 20024 1135 52%
c -  2.19  8 26 13  83 27314 5682 20% 15 20024 1135 52%
c F  2.23  8 25 13  83 28016 6244 20% 15 20024 1135 52%
c }  2.40  8 24 13 120 31001 8896 20% 14 20024 1135 52%
c 
c  seconds  reductions    redundant   irredundant
c         MB     restarts        trail      variables
c          level     conflicts       glue        remaining
c 
c [  2.40  8 27 13 120 31001 8896 20% 15 20024 1135 52%
c -  2.44  8 27 14 120 31515 6232 20% 15 20024 1135 52%
c -  2.72  8 23 15 123 36016 6680 20% 14 20024 1135 52%
c B  2.72  8 23 15 123 36017 6681 20% 14 20024 1135 52%
c -  3.03  8 22 16 126 40816 7081 20% 14 20024 1135 52%
c W  3.35  8 21 16 127 45019 10440 20% 14 20024 1135 52%
c -  3.42  8 21 17 128 45917 7169 20% 14 20024 1135 52%
c s  3.63  8 20 17 128 48863 9307 20% 14 20023 1135 52%
c w  3.89  9 20 17 128 48863 9305 20% 14 20023 1135 52%
c -  4.08  9 20 18 128 51318 7380 20% 14 20023 1135 52%
c O  4.32  9 20 18 130 55022 10053 20% 14 20023 1135 52%
c -  4.45  8 20 19 131 57019 7500 20% 14 20023 1135 52%
c ]  4.83  8 19 19 135 63002 12181 20% 14 20023 1135 52%
c {  4.83  8 24 19 135 63002 12181 20% 14 20023 1135 52%
c -  4.84 10 24 20 135 63019 8142 20% 14 20023 1135 52%
c B  5.05 10 23 20 167 66023 10429 20% 14 20023 1135 52%
c -  5.28 10 23 21 298 69320 9313 19% 14 20023 1135 52%
c -  5.73 10 21 22 315 75920 10500 19% 14 20023 1135 52%
c W  5.93 10 21 22 518 78025 12443 19% 14 20023 1135 52%
c s  6.27 10 21 22 724 81991 15592 19% 14 20023 1135 52%
c 
c  seconds  reductions     redundant   irredundant
c         MB     restarts         trail      variables
c          level     conflicts        glue        remaining
c 
c w  6.61 10 21 22 724 81991 15587 19% 14 20023 1135 52%
c -  6.71 10 21 23 731 82821 11022 19% 14 20023 1135 52%
c -  7.26 10 21 24 1181 90021 11734 19% 14 20023 1135 52%
c #  7.32 10 21 24 1208 91028 12643 19% 14 20023 1135 52%
c -  7.94 11 21 25 2012 97522 12925 19% 14 20023 1135 52%
c B  8.58 11 20 25 2520 105029 19843 19% 14 20023 1135 52%
c -  8.61 11 20 26 2527 105322 13930 19% 14 20023 1135 52%
c -  9.32 11 20 27 3146 113422 14367 19% 14 20023 1135 52%
c W  9.93 11 20 27 3599 120030 20013 19% 14 20023 1135 52%
c - 10.13 11 20 28 3796 121822 15111 19% 14 20023 1135 52%
c s 10.29 11 20 28 3796 123401 15994 19% 14 20023 1135 52%
c w 10.68 11 20 28 3796 123401 15990 19% 14 20023 1135 52%
c e 10.70 11 20 28 3796 123401 9904 19% 14 20206 1089 50%
c s 10.73 11 20 28 3796 123401 9656 19% 14 20201 1089 50%
c } 10.96 11 20 28 3896 127002 12645 19% 14 20201 1089 50%
c [ 10.96 11 19 28 3896 127002 12645 20% 14 20201 1089 50%
c - 11.20 11 19 29 3897 130522 11391 19% 14 20201 1089 50%
c B 11.58 11 19 29 3901 136031 15258 19% 14 20201 1089 50%
c - 11.81 12 19 30 3903 139522 12594 19% 14 20201 1089 50%
c - 12.47 14 18 31 3904 148822 13186 19% 14 20201 1089 50%
c 
c  seconds  reductions       redundant   irredundant
c         MB     restarts           trail      variables
c          level      conflicts         glue        remaining
c 
c W 12.86 14 18 31 3905 153033 16255 18% 14 20201 1089 50%
c - 13.26 14 18 32 3905 158424 13959 18% 13 20201 1089 50%
c - 14.04 14 18 33 3907 168325 14562 18% 13 20201 1089 50%
c I 14.24 14 17 33 3908 171035 16591 18% 13 20201 1089 50%
c s 14.48 14 18 33 3911 173963 18634 18% 13 20200 1089 50%
c w 14.93 14 18 33 3911 173963 18630 18% 13 20200 1089 50%
c e 14.96 14 18 33 3911 173963 17508 18% 13 20206 1088 50%
c s 14.99 14 18 33 3911 173963 17231 18% 13 20200 1088 50%
c e 15.00 14 18 33 3911 173963 17129 18% 13 20206 1087 50%
c - 15.34 11 18 34 3912 178525 14564 18% 13 20206 1087 50%
c - 16.16 11 18 35 3919 189027 14953 18% 13 20206 1087 50%
c B 16.23 11 18 35 3919 190036 15674 18% 14 20206 1087 50%
c - 17.02 11 17 36 3920 199827 14984 18% 14 20206 1087 50%
c W 18.00 11 17 36 3927 210039 22091 18% 14 20206 1087 50%
c - 18.09 11 17 37 3927 210927 15148 18% 14 20206 1087 50%
c - 18.98 11 17 38 3934 222328 15738 18% 14 20206 1087 50%
c O 19.70 11 17 38 3935 231040 21882 18% 14 20206 1087 50%
c s 19.87 11 17 38 3936 232993 23360 18% 14 20201 1087 50%
c v 20.04 11 17 38 3936 232993 23360 18% 14 20200 1087 50%
c w 20.38 12 17 38 3936 232993 23358 18% 14 20200 1087 50%
c 
c  seconds  reductions       redundant   irredundant
c         MB     restarts           trail      variables
c          level      conflicts         glue        remaining
c 
c e 20.39 12 17 38 3936 232993 23312 18% 14 20206 1086 50%
c s 20.42 12 17 38 3936 232993 23159 18% 14 20201 1086 50%
c e 20.42 12 17 38 3936 232993 23126 18% 14 20208 1085 50%
c - 20.52 13 17 39 3936 234031 16292 18% 14 20208 1085 50%
c - 21.39 13 17 40 3936 246032 16507 18% 14 20208 1085 50%
c B 21.93 13 17 40 3937 253041 21370 18% 14 20208 1085 50%
c ] 22.08 13 17 40 3937 255002 22771 18% 14 20208 1085 50%
c { 22.08 13 20 40 3937 255002 22771 19% 14 20208 1085 50%
c - 22.48 13 20 41 4471 258333 17917 19% 14 20208 1085 50%
c - 23.46 13 20 42 4791 270934 19864 18% 14 20208 1085 50%
c F 23.91 13 20 42 5068 276042 24213 18% 14 20208 1085 50%
c - 24.74 14 20 43 5740 283834 21480 18% 14 20208 1085 50%
c - 25.98 14 19 44 6546 297034 23216 18% 14 20208 1085 50%
c B 26.25 14 19 44 6754 300043 25892 18% 14 20208 1085 50%
c s 26.41 14 19 44 6879 300500 26014 18% 14 20201 1085 50%
c v 26.58 14 19 44 6879 300500 26014 18% 14 20200 1085 50%
c w 27.07 14 19 44 6879 300500 26009 18% 14 20200 1085 50%
c e 27.07 14 19 44 6879 300500 26006 18% 14 20206 1084 50%
c s 27.16 14 19 44 6879 300500 25666 18% 14 20201 1084 50%
c e 27.17 14 19 44 6879 300500 25654 18% 14 20203 1083 50%
c 
c  seconds  reductions       redundant   irredundant
c         MB     restarts           trail      variables
c          level      conflicts         glue        remaining
c 
c - 28.22 14 19 45 7841 310536 23734 17% 14 20203 1083 50%
c - 29.50 14 19 46 8245 324338 23407 17% 14 20203 1083 50%
c W 29.75 14 19 46 8433 325046 24073 17% 14 20203 1083 50%
c - 31.23 17 19 47 9803 338439 25424 17% 14 20203 1083 50%
c # 32.60 17 19 47 10661 351048 36254 17% 14 20203 1083 50%
c - 32.96 17 19 48 11140 352839 26011 17% 14 20203 1083 50%
c - 34.28 15 19 49 11829 367539 25684 17% 14 20203 1083 50%
c s 35.08 15 18 49 11829 376488 32126 17% 13 20200 1083 50%
c w 35.94 15 18 49 11829 376488 32120 17% 13 20200 1083 50%
c B 36.18 15 18 49 12068 378051 33493 17% 14 20200 1083 50%
c - 36.84 18 18 50 12766 382539 26225 17% 14 20200 1083 50%
c - 38.49 18 18 51 14035 397840 28111 17% 14 20200 1083 50%
c W 39.44 18 18 51 14035 406053 35081 17% 13 20200 1083 50%
c - 40.88 22 18 52 15994 413440 29740 17% 14 20200 1083 50%
c - 43.19 22 19 53 18723 429340 31220 17% 14 20200 1083 50%
c F 43.68 22 19 53 18798 435054 35891 17% 14 20200 1083 50%
c - 44.97 19 18 54 19521 445540 30277 16% 14 20200 1083 50%
c s 46.91 19 18 54 21073 460914 42250 16% 14 20200 1083 50%
c w 48.04 19 18 54 21073 460914 42242 16% 14 20200 1083 50%
c e 48.12 19 18 54 21073 460914 33704 16% 14 23768 860 39%
c 
c  seconds  reductions        redundant   irredundant
c         MB      restarts           trail      variables
c          level       conflicts         glue       remaining
c 
c s 48.26 19 18 54 21073 460914 33432 16% 14 23768 860 39%
c - 48.40 19 18 55 21109 462040 24284 19% 14 23768 860 39%
c B 48.60 19 18 55 21109 465055 26950 20% 14 23768 860 39%
c - 49.91 19 18 56 21724 478840 26960 20% 14 23768 860 39%
c - 51.88 22 18 57 23334 495941 29067 20% 14 23768 860 39%
c W 52.17 22 18 57 23334 496057 29171 20% 14 23768 860 39%
c } 53.90 22 18 57 24556 511003 42216 20% 14 23768 860 39%
c [ 53.90 22 17 57 24556 511003 42216 24% 14 23768 860 39%
c - 54.13 22 17 58 24556 513344 31127 24% 14 23768 860 39%
c W 55.76 22 17 58 24556 528059 42259 23% 14 23768 860 39%
c - 56.06 22 17 59 24556 531045 29846 23% 14 23768 860 39%
c - 57.77 22 17 60 24563 549045 28835 23% 14 23768 860 39%
c I 58.82 22 17 60 24570 561060 37596 22% 14 23768 860 39%
c s 59.38 22 17 60 24571 566262 41352 22% 14 23768 860 39%
c w 60.75 22 17 60 24571 566262 41351 22% 14 23768 860 39%
c - 60.88 22 17 61 24571 567345 27651 22% 14 23768 860 39%
c - 62.53 22 16 62 24581 585945 26665 22% 13 23768 860 39%
c B 63.37 22 16 62 24585 595062 33656 22% 13 23768 860 39%
c - 64.35 22 17 63 24587 604846 28488 22% 14 23768 860 39%
c - 66.20 22 17 64 24590 624047 27572 22% 14 23768 860 39%
c 
c  seconds  reductions        redundant   irredundant
c         MB      restarts           trail      variables
c          level       conflicts         glue       remaining
c 
c W 67.09 22 17 64 24594 630063 31678 22% 14 23768 860 39%
c - 68.30 22 17 65 24601 643547 27550 22% 14 23768 860 39%
c - 70.01 22 17 66 24609 663348 28055 22% 14 23768 860 39%
c O 70.25 22 16 66 24610 666065 29877 22% 14 23768 860 39%
c - 71.73 22 17 67 24617 683448 30044 21% 14 23768 860 39%
c B 73.57 22 17 67 24619 703067 44090 21% 14 23768 860 39%
c - 73.66 24 17 68 24619 703848 30315 21% 14 23768 860 39%
c - 75.47 24 17 69 24619 724550 30466 21% 14 23768 860 39%
c W 77.48 24 17 69 24620 741069 41174 21% 14 23768 860 39%
c - 77.92 24 17 70 24620 745551 28936 21% 14 23768 860 39%
c - 79.82 24 17 71 24620 766853 29570 21% 14 23768 860 39%
c I 81.05 24 17 71 24620 780070 37861 21% 14 23768 860 39%
c - 81.84 24 17 72 24620 788455 29148 21% 14 23768 860 39%
c - 83.76 24 16 73 24627 810355 29594 21% 14 23768 860 39%
c B 84.59 24 16 73 24633 820072 35814 21% 14 23768 860 39%
c - 85.68 24 16 74 24635 832555 31615 21% 14 23768 860 39%
c - 87.85 24 17 75 24649 855055 32237 21% 14 23768 860 39%
c W 88.85 24 17 75 24650 861074 36772 21% 14 23768 860 39%
c - 90.58 24 17 76 24651 877855 32693 21% 14 23768 860 39%
c - 92.80 24 17 77 24663 900956 32633 21% 14 23768 860 39%
c 
c  seconds  reductions        redundant   irredundant
c         MB      restarts           trail      variables
c          level       conflicts         glue       remaining
c 
c O 93.01 24 17 77 24664 903075 34075 21% 14 23768 860 39%
c - 94.96 17 17 78 24673 924358 34172 21% 14 23768 860 39%
c B 97.07 17 17 78 24681 946077 49892 21% 14 23768 860 39%
c - 97.27 17 17 79 24681 948059 34535 21% 14 23768 860 39%
c - 99.56 17 17 80 24683 972059 34241 21% 14 23768 860 39%
c W 101.95 17 17 80 24683 990079 46050 21% 14 23768 860 39%
c - 102.60 21 17 81 24683 996360 34242 21% 14 23768 860 39%
c - 105.13 21 16 82 24697 1020961 34965 20% 14 23768 860 39%
c ] 105.33 21 16 82 24698 1023005 36172 20% 14 23768 860 39%
c { 105.33 21 18 82 24698 1023005 36172 20% 14 23768 860 39%
c # 106.49 21 18 82 24699 1035080 44455 20% 14 23768 860 39%
c - 108.01 25 18 83 25784 1045862 38031 20% 14 23768 860 39%
c - 111.92 26 18 84 28209 1071063 44571 20% 14 23768 860 39%
c B 113.41 26 18 84 29273 1081081 52727 20% 14 23768 860 39%
c - 116.24 26 18 85 31279 1096564 46387 20% 14 23768 860 39%
c - 120.24 26 18 86 33617 1122365 47663 20% 14 23768 860 39%
c W 121.44 26 18 86 33636 1128083 52456 20% 14 23768 860 39%
c - 124.22 25 18 87 34712 1148466 47300 20% 14 23768 860 39%
c s 124.60 25 18 87 34712 1148466 46074 20% 14 23768 860 39%
c w 128.36 25 18 87 34712 1148466 46045 20% 14 23768 860 39%
c 
c  seconds   reductions         redundant   irredundant
c          MB      restarts            trail      variables
c           level        conflicts         glue       remaining
c 
c - 132.24 29 18 88 36192 1174866 46690 20% 14 23768 860 39%
c F 132.49 29 18 88 36524 1176084 47783 20% 14 23768 860 39%
c - 135.31 29 17 89 36661 1201566 47127 20% 14 23768 860 39%
c B 138.27 29 17 89 37873 1225086 65340 20% 13 23768 860 39%
c - 139.24 29 17 90 38798 1228566 48767 20% 14 23768 860 39%
c - 144.36 25 17 91 43205 1255866 52312 20% 14 23768 860 39%
c W 148.04 25 17 91 44342 1275088 67465 20% 14 23768 860 39%
c - 149.40 25 17 92 44618 1283467 51704 20% 14 23768 860 39%
c - 153.95 25 17 93 47452 1311368 53463 20% 14 23768 860 39%
c # 155.96 25 17 93 48079 1326090 67005 20% 13 23768 860 39%
c - 157.75 30 17 94 48577 1339569 54600 20% 13 23768 860 39%
c - 162.50 31 17 95 51543 1368070 56914 20% 13 23768 860 39%
c B 164.66 31 17 95 54191 1378094 65844 20% 14 23768 860 39%
c - 167.40 25 17 96 55216 1396870 56923 20% 14 23768 860 39%
c - 172.12 31 17 97 57652 1425970 56737 20% 14 23768 860 39%
c W 173.40 31 17 97 57664 1431095 60504 20% 13 23768 860 39%
c - 177.84 37 17 98 60434 1455371 58697 20% 14 23768 860 39%
c - 182.16 32 16 99 61042 1485074 57859 20% 13 23768 860 39%
c F 182.16 32 16 99 61048 1485097 57880 20% 13 23768 860 39%
c - 189.47 26 17 100 67257 1515075 62232 20% 14 23768 860 39%
c 
c  seconds    reductions         redundant   irredundant
c          MB       restarts            trail      variables
c           level         conflicts         glue       remaining
c 
c B 193.83 26 17 100 69131 1540098 80669 20% 14 23768 860 39%
c - 194.84 26 17 101 69537 1545376 59615 20% 14 23768 860 39%
c - 199.34 32 17 102 71232 1575977 60075 20% 14 23768 860 39%
c W 202.94 32 16 102 71858 1596099 74922 20% 14 23768 860 39%
c - 204.75 32 16 103 72742 1606878 59499 20% 13 23768 860 39%
c - 210.23 32 17 104 76455 1638079 61150 20% 14 23768 860 39%
c # 212.77 32 17 104 78231 1653102 72421 20% 14 23768 860 39%
c - 215.94 39 17 105 79831 1669579 63054 20% 14 23768 860 39%
c - 219.87 39 16 106 80758 1701379 60300 20% 14 23768 860 39%
c B 220.91 39 16 106 80758 1711105 66713 20% 13 23768 860 39%
c - 225.69 39 17 107 84995 1733481 62297 20% 14 23768 860 39%
c - 230.36 39 16 108 86566 1765883 64126 20% 14 23768 860 39%
c W 231.73 39 16 108 86566 1770107 66956 20% 13 23768 860 39%
c - 236.56 39 16 109 89133 1798583 63364 20% 14 23768 860 39%
c s 237.19 39 16 109 89133 1798583 60830 20% 14 23768 860 39%
c w 241.63 39 16 109 89133 1798583 60782 20% 14 23768 860 39%
c F 246.73 39 16 109 91161 1830108 84764 20% 14 23768 860 39%
c - 247.23 40 16 110 91535 1831583 62967 20% 14 23768 860 39%
c - 252.76 26 16 111 93908 1864884 64691 20% 14 23768 860 39%
c B 257.67 26 17 111 97265 1891110 85198 20% 14 23768 860 39%
c 
c  seconds    reductions         redundant   irredundant
c          MB       restarts            trail      variables
c           level         conflicts         glue       remaining
c 
c - 259.69 35 17 112 98843 1898484 67775 20% 14 23768 860 39%
c - 264.93 29 16 113 100355 1932385 64977 20% 14 23768 860 39%
c W 270.36 29 17 113 103802 1953111 81803 20% 14 23768 860 39%
c - 272.79 35 17 114 104730 1966585 68388 20% 14 23768 860 39%
c - 278.35 35 16 115 106136 2001086 66236 20% 14 23768 860 39%
c # 280.62 35 16 115 106799 2016112 77072 20% 14 23768 860 39%
c - 283.79 41 16 116 107558 2035886 67673 20% 13 23768 860 39%
c } 285.24 41 16 116 107558 2047006 76711 20% 13 23768 860 39%
c [ 285.24 41 16 116 107558 2047006 76711 20% 14 23768 860 39%
c - 288.86 41 16 117 107568 2070986 66648 21% 14 23768 860 39%
c I 290.12 41 16 117 107573 2080114 72511 21% 14 23768 860 39%
c - 293.92 41 16 118 107577 2106386 61610 21% 14 23768 860 39%
c - 298.79 41 16 119 107594 2142087 60869 21% 14 23768 860 39%
c B 299.18 41 16 119 107595 2145117 62892 21% 13 23768 860 39%
c - 303.92 41 15 120 107605 2178088 58753 21% 13 23768 860 39%
c W 309.53 41 15 120 107606 2211118 79528 21% 13 23768 860 39%
c - 310.03 27 15 121 107606 2214388 58868 21% 13 23768 860 39%
c - 315.15 33 15 122 107607 2250989 60587 21% 13 23768 860 39%
c O 318.91 33 15 122 107607 2278120 78355 21% 13 23768 860 39%
c - 320.22 33 15 123 107608 2287890 60209 21% 13 23768 860 39%
c 
c  seconds    reductions          redundant   irredundant
c          MB       restarts             trail      variables
c           level          conflicts         glue       remaining
c 
c - 325.04 33 16 124 107608 2325090 61293 21% 14 23768 860 39%
c ] 326.31 33 16 124 107608 2335909 69267 21% 14 23768 860 39%
c 1 326.31 33 16 124 107608 2335909 69267 21% 14 23768 860 39%
c 
c --- [ result ] -------------------------------------------------------------
c 
s SATISFIABLE
v 1 -2 -3 4 -5 6 7 8 -9 10 11 -12 13 -14 -15 -16 -17 18 19 20 -21 -22 23 24 25
v -26 -27 -28 29 30 31 32 33 -34 35 36 37 -38 39 -40 41 -42 -43 -44 45 46 47
v 48 49 50 51 52 -53 -54 55 -56 -57 -58 59 60 -61 -62 -63 64 -65 -66 67 -68 69
v 70 -71 -72 73 -74 75 -76 -77 78 -79 80 81 -82 83 84 85 -86 -87 -88 89 -90 91
v -92 -93 -94 95 96 97 -98 99 -100 -101 102 103 104 -105 106 -107 108 109 110
v -111 -112 113 114 115 116 117 -118 119 120 121 -122 -123 -124 -125 126 127
v 128 129 -130 131 132 133 -134 -135 136 137 -138 -139 -140 141 142 -143 144
v 145 -146 -147 148 -149 150 151 152 153 154 -155 -156 157 158 159 -160 161
v 162 163 164 -165 166 -167 168 169 -170 -171 172 -173 -174 175 176 177 178
v -179 180 -181 182 183 184 -185 186 187 -188 189 -190 -191 -192 193 194 -195
v 196 197 198 199 200 201 -202 203 -204 -205 -206 -207 -208 209 210 -211 -212
v 213 214 -215 -216 217 -218 -219 -220 221 -222 -223 224 -225 226 -227 -228
v -229 230 -231 -232 -233 -234 235 -236 237 -238 -239 -240 -241 -242 243 -244
v 245 -246 247 -248 -249 -250 -251 252 253 -254 255 256 257 258 -259 -260 261
v 262 -263 264 265 -266 267 268 -269 270 -271 -272 -273 274 -275 -276 277 278
v 279 -280 -281 282 283 -284 -285 286 287 -288 -289 -290 291 292 293 294 -295
v 296 -297 -298 -299 300 301 -302 -303 304 -305 306 307 308 -309 310 311 312
v 313 -314 315 316 -317 -318 319 -320 -321 -322 323 324 325 -326 -327 -328 329
v 330 331 332 -333 -334 335 336 337 338 -339 340 341 342 343 -344 -345 346 347
v 348 -349 350 -351 352 -353 -354 355 356 -357 -358 359 360 -361 362 -363 -364
v -365 366 -367 -368 -369 -370 371 -372 -373 -374 -375 -376 -377 378 379 380
v -381 -382 -383 384 385 386 387 388 389 -390 -391 -392 -393 -394 -395 396 397
v 398 399 400 -401 402 403 404 -405 -406 407 -408 -409 410 411 412 -413 -414
v -415 -416 -417 -418 -419 420 -421 -422 -423 -424 425 426 427 -428 429 -430
v 431 432 433 434 -435 436 437 438 439 440 -441 -442 -443 -444 -445 446 -447
v 448 449 -450 -451 452 -453 -454 -455 456 -457 -458 -459 460 -461 -462 -463
v -464 465 466 467 468 -469 470 -471 -472 473 -474 475 476 477 -478 479 -480
v 481 482 -483 -484 485 486 487 488 -489 -490 491 492 493 494 -495 -496 -497
v 498 499 500 501 502 -503 -504 -505 506 -507 -508 509 510 511 512 -513 514
v -515 516 517 518 -519 520 521 -522 -523 524 -525 -526 -527 528 -529 530 531
v -532 533 -534 -535 -536 537 538 -539 -540 541 542 -543 544 545 -546 -547 548
v 549 550 -551 -552 -553 554 555 -556 -557 558 559 560 561 562 563 -564 565
v -566 -567 -568 -569 -570 571 572 -573 574 575 -576 -577 578 -579 580 581
v -582 -583 584 585 -586 587 -588 -589 -590 591 592 -593 -594 -595 596 597
v -598 599 -600 -601 602 603 -604 605 606 607 608 -609 610 611 -612 -613 -614
v -615 616 617 618 619 620 621 622 -623 -624 -625 -626 627 628 629 -630 631
v -632 633 -634 635 636 637 -638 -639 -640 -641 642 643 644 645 646 -647 -648
v 649 650 651 -652 -653 654 -655 -656 -657 658 -659 660 -661 -662 -663 -664
v 665 666 -667 668 669 670 -671 -672 673 -674 675 -676 677 678 679 680 -681
v -682 -683 -684 685 686 687 -688 -689 690 691 692 693 -694 -695 696 -697 -698
v -699 700 -701 -702 703 -704 705 -706 707 -708 -709 710 711 -712 713 -714
v -715 716 717 -718 -719 720 721 722 -723 724 -725 -726 -727 -728 -729 730 731
v -732 -733 -734 -735 -736 737 738 -739 740 -741 742 743 744 -745 746 -747
v -748 749 -750 -751 -752 753 754 755 -756 -757 758 759 760 -761 -762 763 764
v -765 766 767 -768 -769 -770 771 -772 -773 774 775 -776 -777 778 779 -780 781
v -782 783 784 -785 -786 787 -788 -789 790 791 -792 793 794 -795 -796 797 -798
v 799 800 -801 -802 803 -804 -805 -806 -807 808 -809 -810 811 -812 813 -814
v 815 816 -817 -818 819 820 -821 -822 -823 824 825 -826 -827 -828 829 -830
v -831 832 833 834 -835 -836 -837 -838 839 840 841 842 -843 844 845 846 -847
v -848 849 850 -851 -852 -853 854 855 -856 -857 -858 -859 860 861 862 -863
v -864 865 -866 -867 868 869 870 -871 872 -873 874 875 876 -877 -878 -879 -880
v -881 882 883 884 -885 886 887 888 889 -890 -891 892 893 -894 -895 -896 897
v 898 -899 -900 -901 902 -903 904 -905 -906 -907 908 -909 -910 911 912 -913
v -914 915 916 917 918 919 -920 921 922 923 924 -925 926 -927 928 -929 -930
v -931 932 -933 934 -935 936 -937 -938 939 -940 941 942 943 -944 -945 -946
v -947 -948 949 950 951 -952 953 954 -955 -956 957 -958 959 960 -961 -962 -963
v -964 -965 -966 967 -968 -969 -970 -971 972 973 -974 975 -976 -977 -978 -979
v -980 -981 982 -983 -984 985 986 -987 988 989 -990 991 992 993 994 995 -996
v 997 -998 999 1000 1001 1002 -1003 -1004 1005 -1006 -1007 1008 -1009 1010
v 1011 -1012 -1013 1014 1015 -1016 1017 1018 -1019 1020 -1021 1022 -1023 1024
v 1025 -1026 1027 1028 1029 1030 1031 -1032 1033 1034 -1035 1036 1037 1038
v -1039 -1040 1041 -1042 1043 1044 1045 -1046 -1047 -1048 -1049 1050 1051 1052
v -1053 1054 1055 -1056 1057 -1058 -1059 -1060 -1061 -1062 1063 1064 1065
v -1066 1067 -1068 -1069 -1070 -1071 -1072 1073 -1074 -1075 -1076 -1077 1078
v -1079 -1080 -1081 1082 1083 1084 1085 1086 -1087 -1088 -1089 -1090 1091 1092
v -1093 -1094 -1095 -1096 1097 1098 -1099 1100 -1101 1102 1103 -1104 1105
v -1106 -1107 1108 -1109 1110 -1111 -1112 -1113 1114 1115 1116 1117 1118 -1119
v -1120 1121 1122 1123 -1124 -1125 1126 -1127 -1128 -1129 -1130 -1131 -1132
v 1133 -1134 -1135 -1136 -1137 1138 1139 1140 1141 -1142 1143 -1144 1145 -1146
v -1147 -1148 -1149 -1150 -1151 -1152 1153 -1154 1155 -1156 -1157 -1158 1159
v 1160 1161 -1162 1163 -1164 1165 -1166 1167 1168 -1169 -1170 1171 -1172 -1173
v -1174 -1175 -1176 -1177 -1178 1179 -1180 1181 1182 1183 1184 -1185 -1186
v 1187 -1188 -1189 -1190 1191 1192 -1193 -1194 1195 -1196 1197 -1198 -1199
v -1200 1201 -1202 1203 1204 -1205 -1206 -1207 -1208 1209 1210 -1211 1212
v -1213 1214 -1215 1216 1217 -1218 1219 1220 1221 -1222 1223 -1224 -1225 1226
v 1227 1228 1229 -1230 -1231 -1232 1233 1234 1235 -1236 1237 1238 1239 -1240
v 1241 1242 1243 1244 -1245 1246 1247 1248 1249 -1250 1251 1252 1253 1254
v -1255 1256 1257 1258 -1259 1260 1261 -1262 1263 1264 1265 1266 -1267 1268
v -1269 1270 1271 1272 -1273 -1274 -1275 1276 -1277 -1278 1279 -1280 -1281
v 1282 1283 1284 -1285 -1286 1287 -1288 -1289 1290 -1291 -1292 1293 1294 1295
v 1296 -1297 1298 1299 1300 -1301 -1302 -1303 -1304 -1305 -1306 1307 1308
v -1309 1310 -1311 1312 1313 -1314 1315 -1316 -1317 -1318 -1319 -1320 -1321
v 1322 -1323 1324 -1325 -1326 -1327 -1328 -1329 -1330 -1331 -1332 -1333 1334
v 1335 1336 1337 -1338 -1339 1340 -1341 1342 1343 -1344 -1345 1346 -1347 -1348
v 1349 1350 -1351 1352 1353 1354 1355 -1356 -1357 -1358 1359 1360 1361 -1362
v -1363 1364 -1365 1366 -1367 -1368 1369 -1370 -1371 -1372 1373 -1374 -1375
v -1376 1377 1378 -1379 1380 1381 1382 1383 -1384 1385 1386 1387 -1388 -1389
v -1390 1391 1392 1393 1394 -1395 -1396 -1397 1398 -1399 -1400 -1401 -1402
v 1403 -1404 -1405 -1406 1407 -1408 1409 -1410 1411 1412 -1413 1414 1415 -1416
v -1417 -1418 1419 -1420 -1421 1422 -1423 -1424 1425 1426 -1427 -1428 1429
v -1430 1431 -1432 1433 -1434 1435 -1436 1437 -1438 1439 1440 1441 1442 1443
v 1444 -1445 1446 1447 -1448 -1449 1450 -1451 -1452 1453 1454 1455 1456 -1457
v 1458 1459 1460 1461 -1462 1463 1464 -1465 -1466 1467 -1468 -1469 -1470 -1471
v 1472 -1473 -1474 1475 -1476 1477 1478 -1479 -1480 1481 1482 1483 1484 1485
v 1486 1487 -1488 1489 -1490 1491 1492 1493 -1494 1495 1496 -1497 -1498 1499
v 1500 1501 1502 1503 1504 1505 -1506 -1507 -1508 1509 -1510 1511 -1512 1513
v 1514 -1515 -1516 1517 -1518 1519 -1520 1521 1522 1523 1524 1525 1526 -1527
v -1528 1529 1530 1531 1532 1533 1534 1535 1536 -1537 1538 -1539 1540 -1541
v -1542 -1543 1544 1545 -1546 -1547 1548 1549 -1550 -1551 -1552 -1553 -1554
v -1555 -1556 1557 1558 1559 1560 -1561 -1562 1563 1564 -1565 -1566 -1567
v -1568 1569 1570 -1571 1572 1573 -1574 1575 -1576 -1577 1578 -1579 -1580 1581
v 1582 -1583 1584 -1585 -1586 -1587 -1588 1589 -1590 -1591 1592 -1593 1594
v 1595 -1596 -1597 -1598 -1599 -1600 1601 -1602 1603 1604 -1605 1606 -1607
v -1608 -1609 -1610 1611 1612 1613 -1614 -1615 1616 -1617 1618 1619 1620 1621
v -1622 1623 1624 -1625 -1626 -1627 -1628 1629 1630 1631 1632 -1633 -1634 1635
v 1636 1637 -1638 -1639 -1640 -1641 1642 1643 -1644 1645 -1646 -1647 1648
v -1649 1650 1651 -1652 -1653 1654 -1655 1656 1657 -1658 1659 -1660 -1661
v -1662 -1663 1664 -1665 -1666 1667 -1668 1669 1670 -1671 1672 1673 1674 -1675
v 1676 1677 1678 1679 1680 -1681 1682 1683 -1684 1685 -1686 -1687 1688 -1689
v 1690 1691 1692 -1693 1694 1695 1696 1697 -1698 1699 1700 1701 1702 -1703
v -1704 -1705 1706 -1707 1708 1709 1710 -1711 1712 1713 1714 -1715 1716 1717
v 1718 -1719 -1720 1721 -1722 1723 1724 -1725 -1726 -1727 -1728 -1729 1730
v -1731 1732 1733 1734 1735 1736 1737 -1738 -1739 -1740 -1741 1742 -1743 -1744
v 1745 1746 1747 1748 -1749 -1750 1751 -1752 1753 -1754 -1755 -1756 -1757 1758
v 1759 -1760 1761 1762 -1763 1764 1765 1766 -1767 -1768 -1769 1770 -1771 1772
v 1773 -1774 1775 1776 -1777 1778 1779 -1780 1781 -1782 -1783 1784 -1785 1786
v 1787 -1788 1789 -1790 1791 -1792 -1793 1794 -1795 1796 1797 -1798 1799 1800
v 1801 1802 -1803 -1804 -1805 1806 1807 1808 1809 -1810 -1811 1812 1813 -1814
v 1815 1816 -1817 -1818 -1819 -1820 -1821 1822 1823 1824 -1825 1826 -1827 1828
v -1829 -1830 1831 -1832 -1833 1834 -1835 -1836 -1837 1838 -1839 1840 -1841
v 1842 -1843 1844 -1845 -1846 -1847 1848 1849 1850 -1851 1852 -1853 1854 -1855
v -1856 -1857 1858 -1859 -1860 1861 1862 1863 1864 1865 -1866 1867 1868 -1869
v 1870 -1871 -1872 1873 -1874 1875 1876 -1877 1878 1879 1880 1881 1882 -1883
v -1884 -1885 1886 1887 1888 -1889 1890 -1891 -1892 -1893 -1894 -1895 -1896
v 1897 1898 -1899 1900 1901 1902 1903 -1904 1905 1906 1907 -1908 -1909 -1910
v -1911 -1912 1913 1914 1915 -1916 -1917 1918 1919 1920 1921 1922 -1923 -1924
v 1925 -1926 1927 1928 1929 1930 -1931 1932 -1933 -1934 1935 1936 -1937 1938
v 1939 1940 -1941 1942 1943 1944 -1945 -1946 1947 -1948 1949 1950 1951 -1952
v 1953 -1954 -1955 1956 1957 -1958 -1959 -1960 1961 1962 -1963 -1964 -1965
v -1966 -1967 1968 1969 1970 -1971 1972 1973 -1974 -1975 -1976 -1977 1978 1979
v -1980 1981 -1982 1983 1984 -1985 -1986 -1987 1988 -1989 1990 -1991 1992 1993
v -1994 1995 -1996 -1997 -1998 -1999 -2000 -2001 2002 2003 2004 2005 -2006
v 2007 2008 2009 -2010 2011 2012 2013 -2014 2015 2016 -2017 2018 -2019 -2020
v -2021 2022 2023 -2024 -2025 -2026 -2027 2028 2029 -2030 -2031 -2032 2033
v 2034 2035 2036 -2037 2038 -2039 2040 -2041 -2042 -2043 -2044 -2045 -2046
v -2047 -2048 -2049 -2050 2051 2052 -2053 -2054 -2055 2056 -2057 2058 -2059
v 2060 2061 -2062 2063 2064 2065 2066 2067 -2068 2069 2070 -2071 -2072 -2073
v -2074 2075 2076 2077 -2078 -2079 2080 -2081 -2082 -2083 2084 2085 2086 -2087
v 2088 -2089 2090 2091 2092 -2093 -2094 2095 -2096 -2097 -2098 2099 -2100
v -2101 -2102 2103 2104 2105 -2106 -2107 -2108 -2109 2110 -2111 -2112 2113
v 2114 -2115 2116 -2117 -2118 -2119 2120 -2121 2122 -2123 2124 -2125 -2126
v -2127 -2128 -2129 -2130 2131 2132 -2133 -2134 -2135 2136 -2137 2138 2139
v 2140 -2141 -2142 2143 -2144 -2145 2146 2147 -2148 -2149 2150 2151 2152 2153
v 2154 2155 2156 -2157 -2158 -2159 -2160 -2161 -2162 -2163 2164 2165 2166
v -2167 -2168 2169 -2170 2171 -2172 2173 2174 -2175 -2176 -2177 -2178 -2179
v -2180 -2181 2182 -2183 2184 2185 2186 2187 0
c 
c --- [ run-time profiling ] -------------------------------------------------
c 
c process time taken by individual solving procedures
c (percentage relative to process time for solving)
c 
c       309.11   94.74% search
c       241.29   73.95% propagate
c       199.58   61.17% unstable
c        99.97   30.64% stable
c        46.55   14.27% analyze
c        17.18    5.26% simplify
c        14.92    4.57% bump
c        14.56    4.46% vivify
c        12.64    3.87% minimize
c         9.56    2.93% walk
c         3.87    1.19% decide
c         1.96    0.60% subsume
c         1.77    0.54% reduce
c         1.40    0.43% collect
c         0.44    0.13% connect
c         0.23    0.07% elim
c         0.20    0.06% decompose
c         0.16    0.05% restart
c         0.14    0.04% ternary
c         0.06    0.02% probe
c         0.03    0.01% compact
c         0.02    0.01% parse
c         0.02    0.01% transred
c         0.01    0.00% backward
c         0.01    0.00% copy
c         0.01    0.00% deduplicate
c         0.00    0.00% lucky
c         0.00    0.00% extend
c   =================================
c       326.29   99.99% solve
c 
c last line shows process time for solving
c (percentage relative to total process time)
c 
c --- [ statistics ] ---------------------------------------------------------
c 
c chronological:             72715         3.11 %  of conflicts
c conflicts:               2335909      7159.10    per second
c decisions:               3430744     10514.55    per second
c eliminated:                  276        12.62 %  of all variables
c fixed:                       570        26.06 %  of all variables
c learned:                 2326997        99.62 %  per conflict
c minimized:              38986362        39.87 %  learned literals
c propagations:          186875554         0.57 M  per second
c reduced:                 1687329        72.23 %  per conflict
c rephased:                     67     34864.31    interval
c restarts:                 107608        21.71    interval
c stabilizing:                   6        41.56 %  of conflicts
c substituted:                 481        21.99 %  of all variables
c subsumed:                 554267        11.65 %  of all clauses
c strengthened:              30848         0.65 %  of all clauses
c ternary:                      62         0.61 %  of resolved
c vivified:                  17248         0.36 %  of all clauses
c walked:                       21    111233.76    interval
c weakened:                   2958         3.28    average size
c 
c seconds are measured in process time for solving
c 
c --- [ resources ] ----------------------------------------------------------
c 
c total process time since initialization:       326.31    seconds
c total real time since initialization:          327.45    seconds
c maximum resident set size of process:           40.84    MB
c 
c --- [ shutting down ] ------------------------------------------------------
c 
c exit 10
